<?xml version = "1.0" encoding="UTF-8" standalone="yes"?>
<CPLEXSolution version="1.2">
 <header
   problemName="IloCplex"
   solutionName="p0"
   solutionIndex="-1"
   objectiveValue="-2121891328"
   solutionTypeValue="3"
   solutionTypeString="primal"
   solutionStatusValue="127"
   solutionStatusString="integer feasible solution"
   solutionMethodString="mip"
   primalFeasible="0"
   dualFeasible="0"
   writeLevel="3"/>
 <quality
   epInt="1.0000000000000001e-05"
   epRHS="9.9999999999999995e-07"
   maxIntInfeas="0"
   maxPrimalInfeas="0"
   maxX="1"
   maxSlack="1"/>
 <variables>
  <variable name="w2_7" index="25" value="1"/>
  <variable name="w24_7" index="223" value="1"/>
  <variable name="u7" index="232" value="1"/>
  <variable name="x0_16" index="250" value="1"/>
  <variable name="x1_2" index="492" value="1"/>
  <variable name="x2_3" index="749" value="1"/>
  <variable name="x3_19" index="1021" value="1"/>
  <variable name="x4_20" index="1278" value="1"/>
  <variable name="x5_6" index="1520" value="1"/>
  <variable name="x6_21" index="1791" value="1"/>
  <variable name="x7_24" index="2050" value="1"/>
  <variable name="x8_9" index="2291" value="1"/>
  <variable name="x9_8" index="2546" value="1"/>
  <variable name="x10_11" index="2805" value="1"/>
  <variable name="x11_12" index="3062" value="1"/>
  <variable name="x12_126" index="3432" value="1"/>
  <variable name="x13_14" index="3576" value="1"/>
  <variable name="x14_13" index="3831" value="1"/>
  <variable name="x15_1" index="4075" value="1"/>
  <variable name="x16_31" index="4361" value="1"/>
  <variable name="x17_33" index="4619" value="1"/>
  <variable name="x18_34" index="4876" value="1"/>
  <variable name="x19_35" index="5133" value="1"/>
  <variable name="x20_4" index="5358" value="1"/>
  <variable name="x21_25" index="5635" value="1"/>
  <variable name="x22_38" index="5904" value="1"/>
  <variable name="x23_7" index="6129" value="1"/>
  <variable name="x24_0" index="6378" value="1"/>
  <variable name="x25_26" index="6660" value="1"/>
  <variable name="x26_10" index="6900" value="1"/>
  <variable name="x27_28" index="7174" value="1"/>
  <variable name="x28_27" index="7429" value="1"/>
  <variable name="x29_30" index="7688" value="1"/>
  <variable name="x30_29" index="7943" value="1"/>
  <variable name="x31_47" index="8217" value="1"/>
  <variable name="x32_48" index="8474" value="1"/>
  <variable name="x33_17" index="8699" value="1"/>
  <variable name="x34_18" index="8956" value="1"/>
  <variable name="x35_51" index="9245" value="1"/>
  <variable name="x36_37" index="9487" value="1"/>
  <variable name="x37_36" index="9742" value="1"/>
  <variable name="x38_39" index="10001" value="1"/>
  <variable name="x39_23" index="10241" value="1"/>
  <variable name="x40_214" index="10688" value="1"/>
  <variable name="x41_40" index="10770" value="1"/>
  <variable name="x42_43" index="11029" value="1"/>
  <variable name="x43_42" index="11284" value="1"/>
  <variable name="x44_60" index="11558" value="1"/>
  <variable name="x45_61" index="11815" value="1"/>
  <variable name="x46_45" index="12055" value="1"/>
  <variable name="x47_46" index="12312" value="1"/>
  <variable name="x48_64" index="12586" value="1"/>
  <variable name="x49_96" index="12874" value="1"/>
  <variable name="x50_49" index="13083" value="1"/>
  <variable name="x51_41" index="13331" value="1"/>
  <variable name="x52_44" index="13590" value="1"/>
  <variable name="x53_69" index="13871" value="1"/>
  <variable name="x54_70" index="14128" value="1"/>
  <variable name="x55_56" index="14370" value="1"/>
  <variable name="x56_88" index="14658" value="1"/>
  <variable name="x57_71" index="14897" value="1"/>
  <variable name="x58_57" index="15139" value="1"/>
  <variable name="x59_75" index="15413" value="1"/>
  <variable name="x60_59" index="15653" value="1"/>
  <variable name="x61_77" index="15927" value="1"/>
  <variable name="x62_78" index="16184" value="1"/>
  <variable name="x63_5" index="16367" value="1"/>
  <variable name="x64_65" index="16683" value="1"/>
  <variable name="x65_15" index="16889" value="1"/>
  <variable name="x66_52" index="17182" value="1"/>
  <variable name="x67_68" index="17454" value="1"/>
  <variable name="x68_53" index="17695" value="1"/>
  <variable name="x69_22" index="17920" value="1"/>
  <variable name="x70_54" index="18208" value="1"/>
  <variable name="x71_72" index="18482" value="1"/>
  <variable name="x72_82" index="18748" value="1"/>
  <variable name="x73_89" index="19011" value="1"/>
  <variable name="x74_58" index="19236" value="1"/>
  <variable name="x75_91" index="19525" value="1"/>
  <variable name="x76_32" index="19722" value="1"/>
  <variable name="x77_76" index="20022" value="1"/>
  <variable name="x78_62" index="20264" value="1"/>
  <variable name="x79_63" index="20521" value="1"/>
  <variable name="x80_81" index="20795" value="1"/>
  <variable name="x81_80" index="21050" value="1"/>
  <variable name="x82_66" index="21292" value="1"/>
  <variable name="x83_67" index="21549" value="1"/>
  <variable name="x84_100" index="21838" value="1"/>
  <variable name="x85_84" index="22078" value="1"/>
  <variable name="x86_85" index="22335" value="1"/>
  <variable name="x87_86" index="22592" value="1"/>
  <variable name="x88_74" index="22836" value="1"/>
  <variable name="x89_73" index="23091" value="1"/>
  <variable name="x90_106" index="23380" value="1"/>
  <variable name="x91_90" index="23620" value="1"/>
  <variable name="x92_92" index="23878" value="1"/>
  <variable name="x93_110" index="24152" value="1"/>
  <variable name="x94_95" index="24393" value="1"/>
  <variable name="x95_79" index="24633" value="1"/>
  <variable name="x96_97" index="24907" value="1"/>
  <variable name="x97_220" index="25286" value="1"/>
  <variable name="x98_99" index="25421" value="1"/>
  <variable name="x99_156" index="25734" value="1"/>
  <variable name="x100_186" index="26020" value="1"/>
  <variable name="x101_101" index="26191" value="1"/>
  <variable name="x102_102" index="26448" value="1"/>
  <variable name="x103_87" index="26689" value="1"/>
  <variable name="x104_104" index="26962" value="1"/>
  <variable name="x105_165" index="27279" value="1"/>
  <variable name="x106_93" index="27463" value="1"/>
  <variable name="x107_107" index="27733" value="1"/>
  <variable name="x108_112" index="27994" value="1"/>
  <variable name="x109_108" index="28246" value="1"/>
  <variable name="x110_94" index="28488" value="1"/>
  <variable name="x111_127" index="28777" value="1"/>
  <variable name="x112_113" index="29019" value="1"/>
  <variable name="x113_105" index="29267" value="1"/>
  <variable name="x114_83" index="29501" value="1"/>
  <variable name="x115_115" index="29789" value="1"/>
  <variable name="x116_116" index="30046" value="1"/>
  <variable name="x117_55" index="30241" value="1"/>
  <variable name="x118_118" index="30560" value="1"/>
  <variable name="x119_119" index="30817" value="1"/>
  <variable name="x120_120" index="31074" value="1"/>
  <variable name="x121_122" index="31332" value="1"/>
  <variable name="x122_121" index="31587" value="1"/>
  <variable name="x123_123" index="31845" value="1"/>
  <variable name="x124_170" index="32148" value="1"/>
  <variable name="x125_109" index="32343" value="1"/>
  <variable name="x126_142" index="32632" value="1"/>
  <variable name="x127_111" index="32857" value="1"/>
  <variable name="x128_128" index="33130" value="1"/>
  <variable name="x129_129" index="33387" value="1"/>
  <variable name="x130_98" index="33612" value="1"/>
  <variable name="x131_132" index="33902" value="1"/>
  <variable name="x132_131" index="34157" value="1"/>
  <variable name="x133_117" index="34399" value="1"/>
  <variable name="x134_150" index="34688" value="1"/>
  <variable name="x135_152" index="34946" value="1"/>
  <variable name="x136_138" index="35188" value="1"/>
  <variable name="x137_103" index="35409" value="1"/>
  <variable name="x138_139" index="35701" value="1"/>
  <variable name="x139_114" index="35932" value="1"/>
  <variable name="x140_124" index="36198" value="1"/>
  <variable name="x141_125" index="36455" value="1"/>
  <variable name="x142_141" index="36727" value="1"/>
  <variable name="x143_190" index="37032" value="1"/>
  <variable name="x144_161" index="37259" value="1"/>
  <variable name="x145_146" index="37500" value="1"/>
  <variable name="x146_145" index="37755" value="1"/>
  <variable name="x147_163" index="38029" value="1"/>
  <variable name="x148_164" index="38286" value="1"/>
  <variable name="x149_133" index="38511" value="1"/>
  <variable name="x150_134" index="38768" value="1"/>
  <variable name="x151_135" index="39025" value="1"/>
  <variable name="x152_136" index="39282" value="1"/>
  <variable name="x153_153" index="39555" value="1"/>
  <variable name="x154_155" index="39813" value="1"/>
  <variable name="x155_203" index="40117" value="1"/>
  <variable name="x156_140" index="40310" value="1"/>
  <variable name="x157_157" index="40583" value="1"/>
  <variable name="x158_130" index="40812" value="1"/>
  <variable name="x159_143" index="41081" value="1"/>
  <variable name="x160_160" index="41354" value="1"/>
  <variable name="x161_177" index="41627" value="1"/>
  <variable name="x162_162" index="41868" value="1"/>
  <variable name="x163_147" index="42109" value="1"/>
  <variable name="x164_148" index="42366" value="1"/>
  <variable name="x165_166" index="42640" value="1"/>
  <variable name="x166_182" index="42912" value="1"/>
  <variable name="x167_151" index="43137" value="1"/>
  <variable name="x168_169" index="43411" value="1"/>
  <variable name="x169_204" index="43702" value="1"/>
  <variable name="x170_154" index="43908" value="1"/>
  <variable name="x171_171" index="44181" value="1"/>
  <variable name="x172_173" index="44439" value="1"/>
  <variable name="x173_172" index="44694" value="1"/>
  <variable name="x174_158" index="44936" value="1"/>
  <variable name="x175_191" index="45225" value="1"/>
  <variable name="x176_192" index="45482" value="1"/>
  <variable name="x177_193" index="45739" value="1"/>
  <variable name="x178_178" index="45980" value="1"/>
  <variable name="x179_179" index="46237" value="1"/>
  <variable name="x180_180" index="46494" value="1"/>
  <variable name="x181_197" index="46767" value="1"/>
  <variable name="x182_181" index="47007" value="1"/>
  <variable name="x183_183" index="47265" value="1"/>
  <variable name="x184_168" index="47506" value="1"/>
  <variable name="x185_184" index="47778" value="1"/>
  <variable name="x186_185" index="48035" value="1"/>
  <variable name="x187_188" index="48294" value="1"/>
  <variable name="x188_189" index="48551" value="1"/>
  <variable name="x189_231" index="48849" value="1"/>
  <variable name="x190_206" index="49080" value="1"/>
  <variable name="x191_175" index="49305" value="1"/>
  <variable name="x192_176" index="49562" value="1"/>
  <variable name="x193_194" index="49836" value="1"/>
  <variable name="x194_226" index="50124" value="1"/>
  <variable name="x195_222" index="50376" value="1"/>
  <variable name="x196_212" index="50622" value="1"/>
  <variable name="x197_198" index="50864" value="1"/>
  <variable name="x198_199" index="51121" value="1"/>
  <variable name="x199_200" index="51378" value="1"/>
  <variable name="x200_201" index="51635" value="1"/>
  <variable name="x201_159" index="51849" value="1"/>
  <variable name="x202_202" index="52148" value="1"/>
  <variable name="x203_187" index="52389" value="1"/>
  <variable name="x204_149" index="52607" value="1"/>
  <variable name="x205_174" index="52888" value="1"/>
  <variable name="x206_207" index="53177" value="1"/>
  <variable name="x207_228" index="53454" value="1"/>
  <variable name="x208_223" index="53705" value="1"/>
  <variable name="x209_225" index="53963" value="1"/>
  <variable name="x210_210" index="54204" value="1"/>
  <variable name="x211_211" index="54461" value="1"/>
  <variable name="x212_195" index="54701" value="1"/>
  <variable name="x213_229" index="54991" value="1"/>
  <variable name="x214_213" index="55231" value="1"/>
  <variable name="x215_215" index="55489" value="1"/>
  <variable name="x216_216" index="55746" value="1"/>
  <variable name="x217_217" index="56003" value="1"/>
  <variable name="x218_218" index="56260" value="1"/>
  <variable name="x219_219" index="56517" value="1"/>
  <variable name="x220_221" index="56775" value="1"/>
  <variable name="x221_205" index="57015" value="1"/>
  <variable name="x222_238" index="57304" value="1"/>
  <variable name="x223_239" index="57561" value="1"/>
  <variable name="x224_208" index="57786" value="1"/>
  <variable name="x225_209" index="58043" value="1"/>
  <variable name="x226_227" index="58317" value="1"/>
  <variable name="x227_243" index="58589" value="1"/>
  <variable name="x228_196" index="58798" value="1"/>
  <variable name="x229_230" index="59088" value="1"/>
  <variable name="x230_246" index="59360" value="1"/>
  <variable name="x231_232" index="59602" value="1"/>
  <variable name="x232_144" index="59770" value="1"/>
  <variable name="x233_234" index="60116" value="1"/>
  <variable name="x234_167" index="60305" value="1"/>
  <variable name="x235_235" index="60629" value="1"/>
  <variable name="x236_252" index="60902" value="1"/>
  <variable name="x237_237" index="61143" value="1"/>
  <variable name="x238_236" index="61398" value="1"/>
  <variable name="x239_224" index="61642" value="1"/>
  <variable name="x240_240" index="61914" value="1"/>
  <variable name="x241_50" index="61980" value="1"/>
  <variable name="x242_241" index="62427" value="1"/>
  <variable name="x243_242" index="62684" value="1"/>
  <variable name="x244_244" index="62942" value="1"/>
  <variable name="x245_245" index="63199" value="1"/>
  <variable name="x246_247" index="63457" value="1"/>
  <variable name="x247_249" index="63715" value="1"/>
  <variable name="x248_248" index="63970" value="1"/>
  <variable name="x249_233" index="64211" value="1"/>
  <variable name="x250_250" index="64484" value="1"/>
  <variable name="x251_251" index="64741" value="1"/>
  <variable name="x252_137" index="64883" value="1"/>
  <variable name="x253_253" index="65255" value="1"/>
  <variable name="x254_254" index="65512" value="1"/>
  <variable name="x255_255" index="65769" value="1"/>
  <variable name="k2" index="65772" value="1"/>
  <variable name="k24" index="65794" value="1"/>
 </variables>
</CPLEXSolution>
